c nIsolatedPIs 6
c maxPI 26
p cnf 137 334
c gate 27 3 16 0
3 -27 0
16 -27 0
-3 -16 27 0
c gate 28 -4 -17 0
-4 -28 0
-17 -28 0
4 17 28 0
c gate 29 -2 -15 0
-2 -29 0
-15 -29 0
2 15 29 0
c gate 30 6 19 0
6 -30 0
19 -30 0
-6 -19 30 0
c gate 31 1 14 0
1 -31 0
14 -31 0
-1 -14 31 0
c gate 32 5 31 0
5 -32 0
31 -32 0
-5 -31 32 0
c gate 33 -18 -32 0
-18 -33 0
-32 -33 0
18 32 33 0
c gate 34 -5 -31 0
-5 -34 0
-31 -34 0
5 31 34 0
c gate 35 -33 -34 0
-33 -35 0
-34 -35 0
33 34 35 0
c gate 36 -30 -35 0
-30 -36 0
-35 -36 0
30 35 36 0
c gate 37 -6 -19 0
-6 -37 0
-19 -37 0
6 19 37 0
c gate 38 -7 -20 0
-7 -38 0
-20 -38 0
7 20 38 0
c gate 39 -37 -38 0
-37 -39 0
-38 -39 0
37 38 39 0
c gate 40 -36 39 0
-36 -40 0
39 -40 0
36 -39 40 0
c gate 41 8 21 0
8 -41 0
21 -41 0
-8 -21 41 0
c gate 42 7 20 0
7 -42 0
20 -42 0
-7 -20 42 0
c gate 43 -41 -42 0
-41 -43 0
-42 -43 0
41 42 43 0
c gate 44 -40 43 0
-40 -44 0
43 -44 0
40 -43 44 0
c gate 45 -9 -22 0
-9 -45 0
-22 -45 0
9 22 45 0
c gate 46 -8 -21 0
-8 -46 0
-21 -46 0
8 21 46 0
c gate 47 -45 -46 0
-45 -47 0
-46 -47 0
45 46 47 0
c gate 48 -44 47 0
-44 -48 0
47 -48 0
44 -47 48 0
c gate 49 9 22 0
9 -49 0
22 -49 0
-9 -22 49 0
c gate 50 10 23 0
10 -50 0
23 -50 0
-10 -23 50 0
c gate 51 -49 -50 0
-49 -51 0
-50 -51 0
49 50 51 0
c gate 52 -48 51 0
-48 -52 0
51 -52 0
48 -51 52 0
c gate 53 -11 -24 0
-11 -53 0
-24 -53 0
11 24 53 0
c gate 54 -10 -23 0
-10 -54 0
-23 -54 0
10 23 54 0
c gate 55 -53 -54 0
-53 -55 0
-54 -55 0
53 54 55 0
c gate 56 -52 55 0
-52 -56 0
55 -56 0
52 -55 56 0
c gate 57 11 24 0
11 -57 0
24 -57 0
-11 -24 57 0
c gate 58 12 25 0
12 -58 0
25 -58 0
-12 -25 58 0
c gate 59 -57 -58 0
-57 -59 0
-58 -59 0
57 58 59 0
c gate 60 -56 59 0
-56 -60 0
59 -60 0
56 -59 60 0
c gate 61 -12 -25 0
-12 -61 0
-25 -61 0
12 25 61 0
c gate 62 -13 -26 0
-13 -62 0
-26 -62 0
13 26 62 0
c gate 63 -61 -62 0
-61 -63 0
-62 -63 0
61 62 63 0
c gate 64 -60 63 0
-60 -64 0
63 -64 0
60 -63 64 0
c gate 65 2 15 0
2 -65 0
15 -65 0
-2 -15 65 0
c gate 66 13 26 0
13 -66 0
26 -66 0
-13 -26 66 0
c gate 67 -65 -66 0
-65 -67 0
-66 -67 0
65 66 67 0
c gate 68 -64 67 0
-64 -68 0
67 -68 0
64 -67 68 0
c gate 69 -29 -68 0
-29 -69 0
-68 -69 0
29 68 69 0
c gate 70 -28 69 0
-28 -70 0
69 -70 0
28 -69 70 0
c gate 71 -27 -70 0
-27 -71 0
-70 -71 0
27 70 71 0
c gate 72 -3 -16 0
-3 -72 0
-16 -72 0
3 16 72 0
c gate 73 -27 -72 0
-27 -73 0
-72 -73 0
27 72 73 0
c gate 74 -28 -73 0
-28 -74 0
-73 -74 0
28 73 74 0
c gate 75 4 17 0
4 -75 0
17 -75 0
-4 -17 75 0
c gate 76 -74 -75 0
-74 -76 0
-75 -76 0
74 75 76 0
c gate 77 -71 76 0
-71 -77 0
76 -77 0
71 -76 77 0
c gate 78 69 73 0
69 -78 0
73 -78 0
-69 -73 78 0
c gate 79 -12 25 0
-12 -79 0
25 -79 0
12 -25 79 0
c gate 80 11 -24 0
11 -80 0
-24 -80 0
-11 24 80 0
c gate 81 9 -22 0
9 -81 0
-22 -81 0
-9 22 81 0
c gate 82 10 -23 0
10 -82 0
-23 -82 0
-10 23 82 0
c gate 83 -81 -82 0
-81 -83 0
-82 -83 0
81 82 83 0
c gate 84 -1 14 0
-1 -84 0
14 -84 0
1 -14 84 0
c gate 85 -5 18 0
-5 -85 0
18 -85 0
5 -18 85 0
c gate 86 -84 -85 0
-84 -86 0
-85 -86 0
84 85 86 0
c gate 87 6 -19 0
6 -87 0
-19 -87 0
-6 19 87 0
c gate 88 5 -18 0
5 -88 0
-18 -88 0
-5 18 88 0
c gate 89 -87 -88 0
-87 -89 0
-88 -89 0
87 88 89 0
c gate 90 -86 89 0
-86 -90 0
89 -90 0
86 -89 90 0
c gate 91 -6 19 0
-6 -91 0
19 -91 0
6 -19 91 0
c gate 92 -7 20 0
-7 -92 0
20 -92 0
7 -20 92 0
c gate 93 -91 -92 0
-91 -93 0
-92 -93 0
91 92 93 0
c gate 94 -90 93 0
-90 -94 0
93 -94 0
90 -93 94 0
c gate 95 8 -21 0
8 -95 0
-21 -95 0
-8 21 95 0
c gate 96 7 -20 0
7 -96 0
-20 -96 0
-7 20 96 0
c gate 97 -95 -96 0
-95 -97 0
-96 -97 0
95 96 97 0
c gate 98 -94 97 0
-94 -98 0
97 -98 0
94 -97 98 0
c gate 99 -8 21 0
-8 -99 0
21 -99 0
8 -21 99 0
c gate 100 -45 -49 0
-45 -100 0
-49 -100 0
45 49 100 0
c gate 101 -99 -100 0
-99 -101 0
-100 -101 0
99 100 101 0
c gate 102 -98 101 0
-98 -102 0
101 -102 0
98 -101 102 0
c gate 103 83 -102 0
83 -103 0
-102 -103 0
-83 102 103 0
c gate 104 -10 23 0
-10 -104 0
23 -104 0
10 -23 104 0
c gate 105 -11 24 0
-11 -105 0
24 -105 0
11 -24 105 0
c gate 106 -104 -105 0
-104 -106 0
-105 -106 0
104 105 106 0
c gate 107 -103 106 0
-103 -107 0
106 -107 0
103 -106 107 0
c gate 108 -80 -107 0
-80 -108 0
-107 -108 0
80 107 108 0
c gate 109 -79 -108 0
-79 -109 0
-108 -109 0
79 108 109 0
c gate 110 12 -25 0
12 -110 0
-25 -110 0
-12 25 110 0
c gate 111 -109 -110 0
-109 -111 0
-110 -111 0
109 110 111 0
c gate 112 -13 26 0
-13 -112 0
26 -112 0
13 -26 112 0
c gate 113 -111 -112 0
-111 -113 0
-112 -113 0
111 112 113 0
c gate 114 -80 -110 0
-80 -114 0
-110 -114 0
80 110 114 0
c gate 115 -112 -114 0
-112 -115 0
-114 -115 0
112 114 115 0
c gate 116 -29 -65 0
-29 -116 0
-65 -116 0
29 65 116 0
c gate 117 -115 116 0
-115 -117 0
116 -117 0
115 -116 117 0
c gate 118 -113 117 0
-113 -118 0
117 -118 0
113 -117 118 0
c gate 119 13 -26 0
13 -119 0
-26 -119 0
-13 26 119 0
c gate 120 113 -117 0
113 -120 0
-117 -120 0
-113 117 120 0
c gate 121 -119 -120 0
-119 -121 0
-120 -121 0
119 120 121 0
c gate 122 -118 121 0
-118 -122 0
121 -122 0
118 -121 122 0
c gate 123 -80 -109 0
-80 -123 0
-109 -123 0
80 109 123 0
c gate 124 -79 -114 0
-79 -124 0
-114 -124 0
79 114 124 0
c gate 125 -123 -124 0
-123 -125 0
-124 -125 0
123 124 125 0
c gate 126 52 -54 0
52 -126 0
-54 -126 0
-52 54 126 0
c gate 127 -80 -104 0
-80 -127 0
-104 -127 0
80 104 127 0
c gate 128 -105 127 0
-105 -128 0
127 -128 0
105 -127 128 0
c gate 129 -83 128 0
-83 -129 0
128 -129 0
83 -128 129 0
c gate 130 84 88 0
84 -130 0
88 -130 0
-84 -88 130 0
c gate 131 -129 -130 0
-129 -131 0
-130 -131 0
129 130 131 0
c gate 132 -102 131 0
-102 -132 0
131 -132 0
102 -131 132 0
c gate 133 -126 132 0
-126 -133 0
132 -133 0
126 -132 133 0
c gate 134 -125 133 0
-125 -134 0
133 -134 0
125 -133 134 0
c gate 135 -122 134 0
-122 -135 0
134 -135 0
122 -134 135 0
c gate 136 -78 135 0
-78 -136 0
135 -136 0
78 -135 136 0
c gate 137 -77 136 0
-77 -137 0
136 -137 0
77 -136 137 0
c PO
-137 0
